c LEQ(domain1,domain1) T(domain1) T(domain0) LEQ(domain1,domain0) LEQ(domain0,domain1) LEQ(domain3,domain1) LEQ(domain1,domain3) T(domain3) LEQ(domain1,domain2) LEQ(domain2,domain1) T(domain2) T(domain4) LEQ(domain1,domain4) LEQ(domain4,domain1) LEQ(domain0,domain0) LEQ(domain3,domain0) LEQ(domain0,domain3) LEQ(domain2,domain0) LEQ(domain0,domain2) LEQ(domain0,domain4) LEQ(domain4,domain0) LEQ(domain3,domain3) LEQ(domain2,domain3) LEQ(domain3,domain2) LEQ(domain4,domain3) LEQ(domain3,domain4) LEQ(domain2,domain2) LEQ(domain2,domain4) LEQ(domain4,domain2) LEQ(domain4,domain4)
c 1 2 3 4 5 6 7 8 9 10 11 12 13 14 15 16 17 18 19 20 21 22 23 24 25 26 27 28 29 30
p cnf 30 25
3 -15 -3 0
3 -4 -2 0
3 -18 -11 0
3 -16 -8 0
3 -21 -12 0
2 -5 -3 0
2 -1 -2 0
2 -10 -11 0
2 -6 -8 0
2 -14 -12 0
11 -19 -3 0
11 -9 -2 0
11 -27 -11 0
11 -24 -8 0
11 -29 -12 0
8 -17 -3 0
8 -7 -2 0
8 -23 -11 0
8 -22 -8 0
8 -25 -12 0
12 -20 -3 0
12 -13 -2 0
12 -28 -11 0
12 -26 -8 0
12 -30 -12 0
